<?xml version="1.0" encoding="UTF-8"?><osil xmlns="os.optimizationservices.org" xmlns:xsi="http://www.w3.org/2001/XMLSchema-instance" xsi:schemaLocation="os.optimizationservices.org http://www.optimizationservices.org/schemas/2.0/OSiL.xsd"><instanceHeader><name>slay05m</name></instanceHeader><instanceData><variables numberOfVariables="70"><var name="x1" lb="2.5" ub="27.5"/><var name="x2" lb="3.5" ub="26.5"/><var name="x3" lb="1.5" ub="28.5"/><var name="x4" lb="1" ub="29"/><var name="x5" lb="2" ub="28"/><var name="x6" lb="3" ub="27"/><var name="x7" lb="2.5" ub="27.5"/><var name="x8" lb="1.5" ub="28.5"/><var name="x9" lb="1.5" ub="28.5"/><var name="x10" lb="2" ub="28"/><var name="b11" type="B" ub="1"/><var name="b12" type="B" ub="1"/><var name="b13" type="B" ub="1"/><var name="b14" type="B" ub="1"/><var name="b15" type="B" ub="1"/><var name="b16" type="B" ub="1"/><var name="b17" type="B" ub="1"/><var name="b18" type="B" ub="1"/><var name="b19" type="B" ub="1"/><var name="b20" type="B" ub="1"/><var name="b21" type="B" ub="1"/><var name="b22" type="B" ub="1"/><var name="b23" type="B" ub="1"/><var name="b24" type="B" ub="1"/><var name="b25" type="B" ub="1"/><var name="b26" type="B" ub="1"/><var name="b27" type="B" ub="1"/><var name="b28" type="B" ub="1"/><var name="b29" type="B" ub="1"/><var name="b30" type="B" ub="1"/><var name="b31" type="B" ub="1"/><var name="b32" type="B" ub="1"/><var name="b33" type="B" ub="1"/><var name="b34" type="B" ub="1"/><var name="b35" type="B" ub="1"/><var name="b36" type="B" ub="1"/><var name="b37" type="B" ub="1"/><var name="b38" type="B" ub="1"/><var name="b39" type="B" ub="1"/><var name="b40" type="B" ub="1"/><var name="b41" type="B" ub="1"/><var name="b42" type="B" ub="1"/><var name="b43" type="B" ub="1"/><var name="b44" type="B" ub="1"/><var name="b45" type="B" ub="1"/><var name="b46" type="B" ub="1"/><var name="b47" type="B" ub="1"/><var name="b48" type="B" ub="1"/><var name="b49" type="B" ub="1"/><var name="b50" type="B" ub="1"/><var name="x51"/><var name="x52"/><var name="x53"/><var name="x54"/><var name="x55"/><var name="x56"/><var name="x57"/><var name="x58"/><var name="x59"/><var name="x60"/><var name="x61"/><var name="x62"/><var name="x63"/><var name="x64"/><var name="x65"/><var name="x66"/><var name="x67"/><var name="x68"/><var name="x69"/><var name="x70"/></variables><objectives><obj maxOrMin="min" constant="290295" name="defObj_objvar" numberOfObjCoef="30"><coef idx="0">-1.2e3</coef><coef idx="1">-7.8e3</coef><coef idx="2">-3.36e3</coef><coef idx="3">-4.2e2</coef><coef idx="4">-6.6e3</coef><coef idx="5">-3e3</coef><coef idx="6">-1.17e4</coef><coef idx="7">-4.32e3</coef><coef idx="8">-4.2e2</coef><coef idx="9">-5.61e3</coef><coef idx="50">300</coef><coef idx="51">2.4e2</coef><coef idx="52">2.1e2</coef><coef idx="53">1.4e2</coef><coef idx="54">100</coef><coef idx="55">1.5e2</coef><coef idx="56">2.2e2</coef><coef idx="57">1.2e2</coef><coef idx="58">300</coef><coef idx="59">100</coef><coef idx="60">300</coef><coef idx="61">2.4e2</coef><coef idx="62">2.1e2</coef><coef idx="63">1.4e2</coef><coef idx="64">100</coef><coef idx="65">1.5e2</coef><coef idx="66">2.2e2</coef><coef idx="67">1.2e2</coef><coef idx="68">300</coef><coef idx="69">100</coef></obj></objectives><constraints numberOfConstraints="90"><con name="e2" lb="0"/><con name="e3" lb="0"/><con name="e4" lb="0"/><con name="e5" lb="0"/><con name="e6" lb="0"/><con name="e7" lb="0"/><con name="e8" lb="0"/><con name="e9" lb="0"/><con name="e10" lb="0"/><con name="e11" lb="0"/><con name="e12" lb="0"/><con name="e13" lb="0"/><con name="e14" lb="0"/><con name="e15" lb="0"/><con name="e16" lb="0"/><con name="e17" lb="0"/><con name="e18" lb="0"/><con name="e19" lb="0"/><con name="e20" lb="0"/><con name="e21" lb="0"/><con name="e22" lb="0"/><con name="e23" lb="0"/><con name="e24" lb="0"/><con name="e25" lb="0"/><con name="e26" lb="0"/><con name="e27" lb="0"/><con name="e28" lb="0"/><con name="e29" lb="0"/><con name="e30" lb="0"/><con name="e31" lb="0"/><con name="e32" lb="0"/><con name="e33" lb="0"/><con name="e34" lb="0"/><con name="e35" lb="0"/><con name="e36" lb="0"/><con name="e37" lb="0"/><con name="e38" lb="0"/><con name="e39" lb="0"/><con name="e40" lb="0"/><con name="e41" lb="0"/><con name="e42" ub="24"/><con name="e43" ub="26"/><con name="e44" ub="26.5"/><con name="e45" ub="25.5"/><con name="e46" ub="25"/><con name="e47" ub="25.5"/><con name="e48" ub="24.5"/><con name="e49" ub="27.5"/><con name="e50" ub="26.5"/><con name="e51" ub="27"/><con name="e52" ub="24"/><con name="e53" ub="26"/><con name="e54" ub="26.5"/><con name="e55" ub="25.5"/><con name="e56" ub="25"/><con name="e57" ub="25.5"/><con name="e58" ub="24.5"/><con name="e59" ub="27.5"/><con name="e60" ub="26.5"/><con name="e61" ub="27"/><con name="e62" ub="24.5"/><con name="e63" ub="25.5"/><con name="e64" ub="25.5"/><con name="e65" ub="25"/><con name="e66" ub="26"/><con name="e67" ub="26"/><con name="e68" ub="25.5"/><con name="e69" ub="27"/><con name="e70" ub="26.5"/><con name="e71" ub="26.5"/><con name="e72" ub="24.5"/><con name="e73" ub="25.5"/><con name="e74" ub="25.5"/><con name="e75" ub="25"/><con name="e76" ub="26"/><con name="e77" ub="26"/><con name="e78" ub="25.5"/><con name="e79" ub="27"/><con name="e80" ub="26.5"/><con name="e81" ub="26.5"/><con name="e82" lb="1" ub="1"/><con name="e83" lb="1" ub="1"/><con name="e84" lb="1" ub="1"/><con name="e85" lb="1" ub="1"/><con name="e86" lb="1" ub="1"/><con name="e87" lb="1" ub="1"/><con name="e88" lb="1" ub="1"/><con name="e89" lb="1" ub="1"/><con name="e90" lb="1" ub="1"/><con name="e91" lb="1" ub="1"/></constraints><linearConstraintCoefficients numberOfValues="280"><start><el mult="81" incr="3">0</el><el mult="10" incr="4">244</el></start><colIdx><el>0</el><el>1</el><el>50</el><el>0</el><el>2</el><el>51</el><el>0</el><el>3</el><el>52</el><el>0</el><el>4</el><el>53</el><el>1</el><el>2</el><el>54</el><el>1</el><el>3</el><el>55</el><el>1</el><el>4</el><el>56</el><el>2</el><el>3</el><el>57</el><el>2</el><el>4</el><el>58</el><el>3</el><el>4</el><el>59</el><el>0</el><el>1</el><el>50</el><el>0</el><el>2</el><el>51</el><el>0</el><el>3</el><el>52</el><el>0</el><el>4</el><el>53</el><el>1</el><el>2</el><el>54</el><el>1</el><el>3</el><el>55</el><el>1</el><el>4</el><el>56</el><el>2</el><el>3</el><el>57</el><el>2</el><el>4</el><el>58</el><el>3</el><el>4</el><el>59</el><el>5</el><el>6</el><el>60</el><el>5</el><el>7</el><el>61</el><el>5</el><el>8</el><el>62</el><el>5</el><el>9</el><el>63</el><el>6</el><el>7</el><el>64</el><el>6</el><el>8</el><el>65</el><el>6</el><el>9</el><el>66</el><el>7</el><el>8</el><el>67</el><el>7</el><el>9</el><el>68</el><el>8</el><el>9</el><el>69</el><el>5</el><el>6</el><el>60</el><el>5</el><el>7</el><el>61</el><el>5</el><el>8</el><el>62</el><el>5</el><el>9</el><el>63</el><el>6</el><el>7</el><el>64</el><el>6</el><el>8</el><el>65</el><el>6</el><el>9</el><el>66</el><el>7</el><el>8</el><el>67</el><el>7</el><el>9</el><el>68</el><el>8</el><el>9</el><el>69</el><el>0</el><el>1</el><el>10</el><el>0</el><el>2</el><el>11</el><el>0</el><el>3</el><el>12</el><el>0</el><el>4</el><el>13</el><el>1</el><el>2</el><el>14</el><el>1</el><el>3</el><el>15</el><el>1</el><el>4</el><el>16</el><el>2</el><el>3</el><el>17</el><el>2</el><el>4</el><el>18</el><el>3</el><el>4</el><el>19</el><el>0</el><el>1</el><el>20</el><el>0</el><el>2</el><el>21</el><el>0</el><el>3</el><el>22</el><el>0</el><el>4</el><el>23</el><el>1</el><el>2</el><el>24</el><el>1</el><el>3</el><el>25</el><el>1</el><el>4</el><el>26</el><el>2</el><el>3</el><el>27</el><el>2</el><el>4</el><el>28</el><el>3</el><el>4</el><el>29</el><el>5</el><el>6</el><el>30</el><el>5</el><el>7</el><el>31</el><el>5</el><el>8</el><el>32</el><el>5</el><el>9</el><el>33</el><el>6</el><el>7</el><el>34</el><el>6</el><el>8</el><el>35</el><el>6</el><el>9</el><el>36</el><el>7</el><el>8</el><el>37</el><el>7</el><el>9</el><el>38</el><el>8</el><el>9</el><el>39</el><el>5</el><el>6</el><el>40</el><el>5</el><el>7</el><el>41</el><el>5</el><el>8</el><el>42</el><el>5</el><el>9</el><el>43</el><el>6</el><el>7</el><el>44</el><el>6</el><el>8</el><el>45</el><el>6</el><el>9</el><el>46</el><el>7</el><el>8</el><el>47</el><el>7</el><el>9</el><el>48</el><el>8</el><el>9</el><el>49</el><el mult="4" incr="10">10</el><el mult="4" incr="10">11</el><el mult="4" incr="10">12</el><el mult="4" incr="10">13</el><el mult="4" incr="10">14</el><el mult="4" incr="10">15</el><el mult="4" incr="10">16</el><el mult="4" incr="10">17</el><el mult="4" incr="10">18</el><el mult="4" incr="10">19</el></colIdx><value><el>-1</el><el mult="2">1</el><el>-1</el><el mult="2">1</el><el>-1</el><el mult="2">1</el><el>-1</el><el mult="2">1</el><el>-1</el><el mult="2">1</el><el>-1</el><el mult="2">1</el><el>-1</el><el mult="2">1</el><el>-1</el><el mult="2">1</el><el>-1</el><el mult="2">1</el><el>-1</el><el mult="3">1</el><el>-1</el><el mult="2">1</el><el>-1</el><el mult="2">1</el><el>-1</el><el mult="2">1</el><el>-1</el><el mult="2">1</el><el>-1</el><el mult="2">1</el><el>-1</el><el mult="2">1</el><el>-1</el><el mult="2">1</el><el>-1</el><el mult="2">1</el><el>-1</el><el mult="2">1</el><el>-1</el><el>1</el><el>-1</el><el mult="2">1</el><el>-1</el><el mult="2">1</el><el>-1</el><el mult="2">1</el><el>-1</el><el mult="2">1</el><el>-1</el><el mult="2">1</el><el>-1</el><el mult="2">1</el><el>-1</el><el mult="2">1</el><el>-1</el><el mult="2">1</el><el>-1</el><el mult="2">1</el><el>-1</el><el mult="3">1</el><el>-1</el><el mult="2">1</el><el>-1</el><el mult="2">1</el><el>-1</el><el mult="2">1</el><el>-1</el><el mult="2">1</el><el>-1</el><el mult="2">1</el><el>-1</el><el mult="2">1</el><el>-1</el><el mult="2">1</el><el>-1</el><el mult="2">1</el><el>-1</el><el mult="2">1</el><el>-1</el><el mult="2">1</el><el>-1</el><el>30</el><el>1</el><el>-1</el><el>30</el><el>1</el><el>-1</el><el>30</el><el>1</el><el>-1</el><el>30</el><el>1</el><el>-1</el><el>30</el><el>1</el><el>-1</el><el>30</el><el>1</el><el>-1</el><el>30</el><el>1</el><el>-1</el><el>30</el><el>1</el><el>-1</el><el>30</el><el>1</el><el>-1</el><el>30</el><el>-1</el><el>1</el><el>30</el><el>-1</el><el>1</el><el>30</el><el>-1</el><el>1</el><el>30</el><el>-1</el><el>1</el><el>30</el><el>-1</el><el>1</el><el>30</el><el>-1</el><el>1</el><el>30</el><el>-1</el><el>1</el><el>30</el><el>-1</el><el>1</el><el>30</el><el>-1</el><el>1</el><el>30</el><el>-1</el><el>1</el><el>30</el><el>1</el><el>-1</el><el>30</el><el>1</el><el>-1</el><el>30</el><el>1</el><el>-1</el><el>30</el><el>1</el><el>-1</el><el>30</el><el>1</el><el>-1</el><el>30</el><el>1</el><el>-1</el><el>30</el><el>1</el><el>-1</el><el>30</el><el>1</el><el>-1</el><el>30</el><el>1</el><el>-1</el><el>30</el><el>1</el><el>-1</el><el>30</el><el>-1</el><el>1</el><el>30</el><el>-1</el><el>1</el><el>30</el><el>-1</el><el>1</el><el>30</el><el>-1</el><el>1</el><el>30</el><el>-1</el><el>1</el><el>30</el><el>-1</el><el>1</el><el>30</el><el>-1</el><el>1</el><el>30</el><el>-1</el><el>1</el><el>30</el><el>-1</el><el>1</el><el>30</el><el>-1</el><el>1</el><el>30</el><el mult="40">1</el></value></linearConstraintCoefficients><quadraticCoefficients numberOfQuadraticTerms="10"><qTerm idx="-1" idxOne="0" idxTwo="0" coef="1.5e2"/><qTerm idx="-1" idxOne="1" idxTwo="1" coef="3.9e2"/><qTerm idx="-1" idxOne="2" idxTwo="2" coef="2.4e2"/><qTerm idx="-1" idxOne="3" idxTwo="3" coef="70"/><qTerm idx="-1" idxOne="4" idxTwo="4" coef="165"/><qTerm idx="-1" idxOne="5" idxTwo="5" coef="1.5e2"/><qTerm idx="-1" idxOne="6" idxTwo="6" coef="3.9e2"/><qTerm idx="-1" idxOne="7" idxTwo="7" coef="2.4e2"/><qTerm idx="-1" idxOne="8" idxTwo="8" coef="70"/><qTerm idx="-1" idxOne="9" idxTwo="9" coef="165"/></quadraticCoefficients></instanceData></osil>